/*********************************************
 * OPL 12.6.0.0 Data
 * Author: Adrian Rodriguez Bazaga, Pau Rodriguez Esmerats
 * Creation Date: 30/11/2017 at 19:59:18
 *********************************************/

nNurses=1144;
maxConsec=2;
maxPresence=7;
maxHours=5;
minHours=1;
demand= [241 242 362 368 242 362 368 254 256 150 20 38 38 46 50 34 39 23 30 8 199 388 201 304  ];
